outputs/case_163.model.txt
capital_adequacy_ratio = 100
net_worth = 10
net_worth_ratio = 3
internal_control_executed_flag = True
internal_handling_executed_flag = True
internal_handling_established_flag = True
internal_control_established_flag = True
internal_control_executed = True
internal_handling_established = True
penalty = False
internal_handling_ok = True
internal_handling_executed = True
internal_control_established = True
capital_level = 0
internal_control_ok = True